************************************************************************
file with basedata            : md329_.bas
initial value random generator: 1079121237
************************************************************************
projects                      :  1
jobs (incl. supersource/sink ):  22
horizon                       :  157
RESOURCES
  - renewable                 :  2   R
  - nonrenewable              :  2   N
  - doubly constrained        :  0   D
************************************************************************
PROJECT INFORMATION:
pronr.  #jobs rel.date duedate tardcost  MPM-Time
    1     20      0       17       19       17
************************************************************************
PRECEDENCE RELATIONS:
jobnr.    #modes  #successors   successors
   1        1          3           2   3   4
   2        3          2           8  15
   3        3          3           6   8  10
   4        3          3           5  12  14
   5        3          3           7  10  11
   6        3          2           9  16
   7        3          1          18
   8        3          2          12  16
   9        3          2          13  14
  10        3          2          18  20
  11        3          1          13
  12        3          1          19
  13        3          2          15  17
  14        3          2          15  17
  15        3          3          19  20  21
  16        3          2          18  21
  17        3          2          20  21
  18        3          1          19
  19        3          1          22
  20        3          1          22
  21        3          1          22
  22        1          0        
************************************************************************
REQUESTS/DURATIONS:
jobnr. mode duration  R 1  R 2  N 1  N 2
------------------------------------------------------------------------
  1      1     0       0    0    0    0
  2      1     1       8    0    8    0
         2     1       7    0    0    6
         3     8       0    7    8    0
  3      1     3      10    0    0    5
         2     7       0    9    0    4
         3    10       6    0    0    4
  4      1     3       9    0    7    0
         2     6       0    8    4    0
         3     9       5    0    2    0
  5      1     1       3    0   10    0
         2     2       2    0    7    0
         3    10       0    2    3    0
  6      1     2       0    7    0    9
         2     3      10    0    0    8
         3     6       9    0    4    0
  7      1     5       9    0    0    8
         2     6       7    0    0    7
         3     7       5    0    0    7
  8      1     2       4    0    6    0
         2     5       0    7    6    0
         3     8       2    0    1    0
  9      1     2       0   10    6    0
         2     3       0    9    6    0
         3    10       0    7    3    0
 10      1     3       0    6    0    5
         2     3       2    0    5    0
         3     9       0    7    0    4
 11      1     4       0    7    0    9
         2     6       0    6    0    6
         3    10       0    5    8    0
 12      1     7       0    5    0    7
         2    10       0    4    0    7
         3    10       2    0    0    7
 13      1     3       3    0    0    3
         2     6       0    1    0    3
         3    10       0    1    0    2
 14      1     1       8    0    0    5
         2     2       8    0    8    0
         3     4       0    2    0    4
 15      1     1       6    0    4    0
         2     1       0    1    3    0
         3     3       8    0    0    9
 16      1     2       0    5    6    0
         2     4       6    0    0    7
         3     4       6    0    4    0
 17      1     3       7    0    0    9
         2     8       0    5    3    0
         3     9       7    0    0    8
 18      1     1       0    8    4    0
         2     4       9    0    4    0
         3    10       9    0    0    6
 19      1     2       6    0    9    0
         2     5       4    0    0    8
         3     8       0    5    0    8
 20      1     1       0    6    0    6
         2     2       0    5    4    0
         3     3       0    4    0    5
 21      1     3       8    0    0    2
         2     9       0    6    0    2
         3     9       0    7    7    0
 22      1     0       0    0    0    0
************************************************************************
RESOURCEAVAILABILITIES:
  R 1  R 2  N 1  N 2
   11   11   54   62
************************************************************************
MAXIMAL LAGS:
from  to  type  delay
    1   22   ES      0
    1    2   ES      0
    2   22   ES      0
    1    3   ES      0
    3   22   ES      0
    1    4   ES      0
    4   22   ES      0
    1    5   ES      0
    5   22   ES      0
    1    6   ES      0
    6   22   ES      0
    1    7   ES      0
    7   22   ES      0
    1    8   ES      0
    8   22   ES      0
    1    9   ES      0
    9   22   ES      0
    1   10   ES      0
   10   22   ES      0
    1   11   ES      0
   11   22   ES      0
    1   12   ES      0
   12   22   ES      0
    1   13   ES      0
   13   22   ES      0
    1   14   ES      0
   14   22   ES      0
    1   15   ES      0
   15   22   ES      0
    1   16   ES      0
   16   22   ES      0
    1   17   ES      0
   17   22   ES      0
    1   18   ES      0
   18   22   ES      0
    1   19   ES      0
   19   22   ES      0
    1   20   ES      0
   20   22   ES      0
    1   21   ES      0
   21   22   ES      0
    1   22   ES      0
    2    8   SS      1
    2    8   SE      8
    2    8   ES     12
    2    8   EE     -2
    2   15   SS     -9
    2   15   SE      0
    2   15   ES     -6
    2   15   EE      7
    3    6   SS     -9
    3    6   SE      2
    3    6   ES     -7
    3    6   EE      3
    3    8   SS     -9
    3    8   SE     12
    3    8   ES     -2
    3    8   EE     -4
    3   10   SS      5
    3   10   SE     10
    3   10   ES     -6
    3   10   EE      1
    4    5   SS     -7
    4    5   SE      5
    4    5   ES    -10
    4    5   EE     11
    4   12   SS     -6
    4   12   SE     -3
    4   12   ES     -9
    4   12   EE     -5
    4   14   SS     -2
    4   14   SE    -12
    4   14   ES     -6
    4   14   EE     -6
    5    7   SS     -3
    5    7   SE      0
    5    7   ES    -12
    5    7   EE     10
    5   10   SS      3
    5   10   SE     -3
    5   10   ES      6
    5   10   EE      1
    5   11   SS      8
    5   11   SE      4
    5   11   ES      2
    5   11   EE     -2
    6    9   SS      2
    6    9   SE     -3
    6    9   ES      8
    6    9   EE     11
    6   16   SS     -3
    6   16   SE      1
    6   16   ES     10
    6   16   EE     -2
    7   18   SS     -3
    7   18   SE     10
    7   18   ES     -4
    7   18   EE      5
    8   12   SS     -8
    8   12   SE     -9
    8   12   ES      4
    8   12   EE      3
    8   16   SS     -6
    8   16   SE      7
    8   16   ES      5
    8   16   EE      9
    9   13   SS     -7
    9   13   SE     -9
    9   13   ES     12
    9   13   EE     -8
    9   14   SS     -2
    9   14   SE     -2
    9   14   ES      4
    9   14   EE      5
   10   18   SS      3
   10   18   SE      3
   10   18   ES     -4
   10   18   EE    -11
   10   20   SS     12
   10   20   SE     -1
   10   20   ES    -11
   10   20   EE     -6
   11   13   SS     12
   11   13   SE    -10
   11   13   ES     -2
   11   13   EE    -10
   12   19   SS     -6
   12   19   SE     -3
   12   19   ES     12
   12   19   EE      9
   13   15   SS      0
   13   15   SE     -1
   13   15   ES    -11
   13   15   EE      5
   13   17   SS     10
   13   17   SE      9
   13   17   ES      1
   13   17   EE     -2
   14   15   SS     10
   14   15   SE      1
   14   15   ES      7
   14   15   EE      6
   14   17   SS      1
   14   17   SE     10
   14   17   ES     11
   14   17   EE     -5
   15   19   SS      5
   15   19   SE      3
   15   19   ES     -4
   15   19   EE     -3
   15   20   SS      3
   15   20   SE      3
   15   20   ES    -10
   15   20   EE     -5
   15   21   SS     -3
   15   21   SE    -10
   15   21   ES     -7
   15   21   EE     -2
   16   18   SS     11
   16   18   SE     -5
   16   18   ES      8
   16   18   EE      4
   16   21   SS     10
   16   21   SE     12
   16   21   ES      8
   16   21   EE     -5
   17   20   SS     -4
   17   20   SE    -10
   17   20   ES    -12
   17   20   EE      1
   17   21   SS     -1
   17   21   SE     12
   17   21   ES      2
   17   21   EE     -8
   18   19   SS      7
   18   19   SE     11
   18   19   ES     11
   18   19   EE      7
************************************************************************
